c 
c G(n,p) graph
c graph gen seed     : 7910
c number of vertices : 60
c max number of edges: 1770
c edge probability   : 0.400000
c data structure     : sparse
c
c           Graph Stats
c number of vertices  : 60
c nonisolated vertices: 60
c number of edges     : 687
c edge density        : 0.388136
c max degree          : 31
c avg degree          : 22.90
c min degree          : 15
p col 60 687
e 1 60
e 1 57
e 1 55
e 1 51
e 1 50
e 1 49
e 1 48
e 1 47
e 1 46
e 1 43
e 1 42
e 1 39
e 1 38
e 1 37
e 1 35
e 1 34
e 1 31
e 1 30
e 1 25
e 1 22
e 1 21
e 1 19
e 1 8
e 1 7
e 2 60
e 2 59
e 2 58
e 2 57
e 2 55
e 2 52
e 2 50
e 2 49
e 2 45
e 2 43
e 2 41
e 2 38
e 2 36
e 2 35
e 2 33
e 2 32
e 2 29
e 2 28
e 2 26
e 2 23
e 2 21
e 2 18
e 2 15
e 2 8
e 2 7
e 2 4
e 2 3
e 3 55
e 3 51
e 3 48
e 3 45
e 3 44
e 3 41
e 3 39
e 3 36
e 3 35
e 3 34
e 3 31
e 3 30
e 3 25
e 3 23
e 3 22
e 3 20
e 3 18
e 3 16
e 3 13
e 3 11
e 3 8
e 3 5
e 3 4
e 4 53
e 4 49
e 4 48
e 4 47
e 4 45
e 4 44
e 4 41
e 4 40
e 4 39
e 4 38
e 4 35
e 4 33
e 4 31
e 4 30
e 4 29
e 4 26
e 4 25
e 4 20
e 4 19
e 4 16
e 4 15
e 4 11
e 4 9
e 4 6
e 5 45
e 5 43
e 5 42
e 5 40
e 5 38
e 5 36
e 5 27
e 5 26
e 5 25
e 5 24
e 5 14
e 5 13
e 5 12
e 5 9
e 6 60
e 6 57
e 6 56
e 6 55
e 6 54
e 6 48
e 6 46
e 6 42
e 6 38
e 6 26
e 6 24
e 6 23
e 6 21
e 6 20
e 6 16
e 6 14
e 6 13
e 6 11
e 6 10
e 6 9
e 6 7
e 7 59
e 7 57
e 7 51
e 7 49
e 7 39
e 7 38
e 7 37
e 7 35
e 7 31
e 7 29
e 7 27
e 7 20
e 7 18
e 7 16
e 7 11
e 7 10
e 7 9
e 8 49
e 8 47
e 8 41
e 8 38
e 8 34
e 8 32
e 8 27
e 8 24
e 8 23
e 8 21
e 8 18
e 8 14
e 8 13
e 8 9
e 9 57
e 9 55
e 9 50
e 9 48
e 9 47
e 9 44
e 9 41
e 9 39
e 9 38
e 9 37
e 9 36
e 9 35
e 9 34
e 9 33
e 9 32
e 9 30
e 9 28
e 9 23
e 9 21
e 10 60
e 10 59
e 10 54
e 10 53
e 10 51
e 10 49
e 10 47
e 10 46
e 10 40
e 10 38
e 10 35
e 10 31
e 10 27
e 10 23
e 10 21
e 10 20
e 10 19
e 10 18
e 10 14
e 10 12
e 11 60
e 11 58
e 11 57
e 11 56
e 11 55
e 11 54
e 11 53
e 11 47
e 11 45
e 11 43
e 11 42
e 11 38
e 11 34
e 11 32
e 11 31
e 11 26
e 11 25
e 11 21
e 11 20
e 11 18
e 11 17
e 11 16
e 11 15
e 12 56
e 12 51
e 12 50
e 12 49
e 12 48
e 12 46
e 12 44
e 12 43
e 12 42
e 12 37
e 12 36
e 12 33
e 12 32
e 12 31
e 12 28
e 12 26
e 12 20
e 12 19
e 12 13
e 13 60
e 13 56
e 13 55
e 13 54
e 13 52
e 13 51
e 13 49
e 13 48
e 13 46
e 13 42
e 13 41
e 13 38
e 13 17
e 14 60
e 14 59
e 14 57
e 14 56
e 14 54
e 14 53
e 14 51
e 14 50
e 14 48
e 14 47
e 14 46
e 14 45
e 14 40
e 14 37
e 14 36
e 14 30
e 14 29
e 14 26
e 14 22
e 14 19
e 14 17
e 14 15
e 15 57
e 15 56
e 15 55
e 15 54
e 15 49
e 15 47
e 15 38
e 15 35
e 15 33
e 15 31
e 15 30
e 15 26
e 15 19
e 15 18
e 15 17
e 16 58
e 16 54
e 16 51
e 16 50
e 16 46
e 16 45
e 16 44
e 16 42
e 16 40
e 16 37
e 16 34
e 16 33
e 16 32
e 16 30
e 16 28
e 16 25
e 16 24
e 16 23
e 16 22
e 16 19
e 17 60
e 17 58
e 17 56
e 17 52
e 17 49
e 17 44
e 17 43
e 17 42
e 17 32
e 17 31
e 17 30
e 17 28
e 17 26
e 17 25
e 17 22
e 17 20
e 17 19
e 17 18
e 18 57
e 18 55
e 18 53
e 18 48
e 18 47
e 18 44
e 18 42
e 18 41
e 18 40
e 18 35
e 18 34
e 18 33
e 18 25
e 18 24
e 18 22
e 18 21
e 18 19
e 19 56
e 19 54
e 19 52
e 19 51
e 19 49
e 19 46
e 19 40
e 19 38
e 19 36
e 19 35
e 19 34
e 19 32
e 19 31
e 19 27
e 19 25
e 19 22
e 20 60
e 20 58
e 20 54
e 20 53
e 20 52
e 20 47
e 20 46
e 20 43
e 20 42
e 20 40
e 20 38
e 20 36
e 20 35
e 20 31
e 20 30
e 20 29
e 20 22
e 21 58
e 21 55
e 21 54
e 21 49
e 21 46
e 21 43
e 21 42
e 21 41
e 21 40
e 21 35
e 21 32
e 21 31
e 21 29
e 21 25
e 21 24
e 21 23
e 22 60
e 22 58
e 22 55
e 22 47
e 22 45
e 22 43
e 22 42
e 22 41
e 22 40
e 22 34
e 22 33
e 22 31
e 22 30
e 22 29
e 22 28
e 22 24
e 23 54
e 23 53
e 23 51
e 23 49
e 23 47
e 23 44
e 23 42
e 23 41
e 23 40
e 23 37
e 23 36
e 23 35
e 23 31
e 23 29
e 23 28
e 23 24
e 24 60
e 24 58
e 24 56
e 24 53
e 24 52
e 24 51
e 24 48
e 24 45
e 24 44
e 24 43
e 24 38
e 24 37
e 24 36
e 24 35
e 24 31
e 24 29
e 24 28
e 25 60
e 25 58
e 25 57
e 25 54
e 25 51
e 25 44
e 25 41
e 25 40
e 25 36
e 25 33
e 25 30
e 25 27
e 26 58
e 26 55
e 26 48
e 26 45
e 26 44
e 26 43
e 26 42
e 26 38
e 26 32
e 26 31
e 26 27
e 27 60
e 27 59
e 27 57
e 27 56
e 27 54
e 27 53
e 27 52
e 27 51
e 27 47
e 27 46
e 27 45
e 27 40
e 27 36
e 27 35
e 27 34
e 27 30
e 27 29
e 28 60
e 28 59
e 28 57
e 28 53
e 28 51
e 28 50
e 28 49
e 28 48
e 28 36
e 28 34
e 28 32
e 28 30
e 28 29
e 29 53
e 29 52
e 29 51
e 29 48
e 29 47
e 29 45
e 29 44
e 29 40
e 29 38
e 29 35
e 29 32
e 29 30
e 30 59
e 30 54
e 30 51
e 30 48
e 30 47
e 30 46
e 30 44
e 30 43
e 30 41
e 30 40
e 30 37
e 30 36
e 31 60
e 31 59
e 31 54
e 31 52
e 31 51
e 31 48
e 31 47
e 31 45
e 31 41
e 31 39
e 31 37
e 31 36
e 31 34
e 32 58
e 32 55
e 32 49
e 32 48
e 32 36
e 32 35
e 32 34
e 32 33
e 33 56
e 33 49
e 33 46
e 33 45
e 33 44
e 33 43
e 33 42
e 33 37
e 33 36
e 34 58
e 34 56
e 34 55
e 34 51
e 34 49
e 34 47
e 34 42
e 34 40
e 34 39
e 34 38
e 34 37
e 35 60
e 35 59
e 35 56
e 35 53
e 35 52
e 35 51
e 35 50
e 35 46
e 35 43
e 35 39
e 36 56
e 36 54
e 36 52
e 36 48
e 36 45
e 36 41
e 37 59
e 37 58
e 37 54
e 37 51
e 37 48
e 37 46
e 37 45
e 37 42
e 37 39
e 38 60
e 38 59
e 38 58
e 38 57
e 38 55
e 38 54
e 38 52
e 38 46
e 38 45
e 38 44
e 38 41
e 38 40
e 38 39
e 39 59
e 39 54
e 39 53
e 39 50
e 39 47
e 39 41
e 40 60
e 40 58
e 40 55
e 40 54
e 40 53
e 40 49
e 40 46
e 40 45
e 40 44
e 40 43
e 41 55
e 41 50
e 41 48
e 41 44
e 42 57
e 42 56
e 42 47
e 42 46
e 42 44
e 43 58
e 43 57
e 43 55
e 43 49
e 43 44
e 44 60
e 44 57
e 44 54
e 44 52
e 44 51
e 44 49
e 44 47
e 44 46
e 45 59
e 45 58
e 45 54
e 45 52
e 45 47
e 46 57
e 46 56
e 46 51
e 47 60
e 47 56
e 47 53
e 47 52
e 48 60
e 48 59
e 48 58
e 48 57
e 48 54
e 48 53
e 48 49
e 49 54
e 49 52
e 49 50
e 50 60
e 50 58
e 50 55
e 50 54
e 50 53
e 50 52
e 50 51
e 51 60
e 51 59
e 51 57
e 51 55
e 51 52
e 52 57
e 52 53
e 53 59
e 53 58
e 53 56
e 53 55
e 54 57
e 55 60
e 56 57
e 57 59
e 57 58
